;Datatype of images
(declare-datatypes () ((Img
 s3 s2 s1 t2 t3 t1 s4
)))
;Constant symbols for objects
;All values are distinct by default
(declare-datatypes () ((Obj
 s3_o1 s3_o3 s3_o2
 s2_o2 s2_o3 s2_o1 s2_o4
 s1_o8 s1_o3 s1_o2 s1_o1 s1_o7 s1_o6 s1_o5 s1_o4
 t2_o5 t2_o4 t2_o6 t2_o1 t2_o3 t2_o2
 t3_o4 t3_o2 t3_o3 t3_o1
 t1_o1 t1_o2 t1_o3 t1_o4 t1_o5 t1_o6 t1_o7
 s4_o1 s4_o2 s4_o3 s4_o4 s4_o5 s4_o6 s4_o7 s4_o8 s4_o9 s4_o12 s4_o10 s4_o11
;extraneous objects
 vase keyboard tvmonitor chair mouse diningtable remote cup sofa backpack bed nullobj person bottle cell_phone book
)))
;Membership of objects in images
;Extraneous objects belong to no images
(define-fun inImg ((x Obj )(y Img)) Bool
(or
(and (= x s3_o1) (= y s3))
(and (= x s3_o3) (= y s3))
(and (= x s3_o2) (= y s3))
(and (= x s2_o2) (= y s2))
(and (= x s2_o3) (= y s2))
(and (= x s2_o1) (= y s2))
(and (= x s2_o4) (= y s2))
(and (= x s1_o8) (= y s1))
(and (= x s1_o3) (= y s1))
(and (= x s1_o2) (= y s1))
(and (= x s1_o1) (= y s1))
(and (= x s1_o7) (= y s1))
(and (= x s1_o6) (= y s1))
(and (= x s1_o5) (= y s1))
(and (= x s1_o4) (= y s1))
(and (= x t2_o5) (= y t2))
(and (= x t2_o4) (= y t2))
(and (= x t2_o6) (= y t2))
(and (= x t2_o1) (= y t2))
(and (= x t2_o3) (= y t2))
(and (= x t2_o2) (= y t2))
(and (= x t3_o4) (= y t3))
(and (= x t3_o2) (= y t3))
(and (= x t3_o3) (= y t3))
(and (= x t3_o1) (= y t3))
(and (= x t1_o1) (= y t1))
(and (= x t1_o2) (= y t1))
(and (= x t1_o3) (= y t1))
(and (= x t1_o4) (= y t1))
(and (= x t1_o5) (= y t1))
(and (= x t1_o6) (= y t1))
(and (= x t1_o7) (= y t1))
(and (= x s4_o1) (= y s4))
(and (= x s4_o2) (= y s4))
(and (= x s4_o3) (= y s4))
(and (= x s4_o4) (= y s4))
(and (= x s4_o5) (= y s4))
(and (= x s4_o6) (= y s4))
(and (= x s4_o7) (= y s4))
(and (= x s4_o8) (= y s4))
(and (= x s4_o9) (= y s4))
(and (= x s4_o12) (= y s4))
(and (= x s4_o10) (= y s4))
(and (= x s4_o11) (= y s4))
))
;Datatype of relations--made into a uniform arity
(declare-datatypes () ((Rels neq labelOf sameLabel toLeft toRight above below within)))
;Relation evaluator
;All relations are made into a uniform arity using 'nullobj' as a default argument
(define-fun re ((r Rels)(a Obj)(b Obj)) Bool
(or
(and (= r neq) (not (= b a)))
(and (= r labelOf) (= a s3_o1) (= b keyboard))
(and (= r labelOf) (= a s3_o3) (= b cup))
(and (= r labelOf) (= a s3_o2) (= b diningtable))
(and (= r labelOf) (= a s2_o2) (= b remote))
(and (= r labelOf) (= a s2_o3) (= b tvmonitor))
(and (= r labelOf) (= a s2_o1) (= b vase))
(and (= r labelOf) (= a s2_o4) (= b person))
(and (= r labelOf) (= a s1_o8) (= b chair))
(and (= r labelOf) (= a s1_o3) (= b tvmonitor))
(and (= r labelOf) (= a s1_o2) (= b book))
(and (= r labelOf) (= a s1_o1) (= b book))
(and (= r labelOf) (= a s1_o7) (= b sofa))
(and (= r labelOf) (= a s1_o6) (= b sofa))
(and (= r labelOf) (= a s1_o5) (= b sofa))
(and (= r labelOf) (= a s1_o4) (= b sofa))
(and (= r labelOf) (= a s4_o1) (= b book))
(and (= r labelOf) (= a s4_o2) (= b book))
(and (= r labelOf) (= a s4_o3) (= b book))
(and (= r labelOf) (= a s4_o4) (= b keyboard))
(and (= r labelOf) (= a s4_o5) (= b mouse))
(and (= r labelOf) (= a s4_o6) (= b mouse))
(and (= r labelOf) (= a s4_o7) (= b mouse))
(and (= r labelOf) (= a s4_o8) (= b tvmonitor))
(and (= r labelOf) (= a s4_o9) (= b tvmonitor))
(and (= r labelOf) (= a s4_o12) (= b backpack))
(and (= r labelOf) (= a s4_o10) (= b tvmonitor))
(and (= r labelOf) (= a s4_o11) (= b chair))
(and (= r labelOf) (= a t2_o5) (= b tvmonitor))
(and (= r labelOf) (= a t2_o4) (= b mouse))
(and (= r labelOf) (= a t2_o6) (= b tvmonitor))
(and (= r labelOf) (= a t2_o1) (= b keyboard))
(and (= r labelOf) (= a t2_o3) (= b mouse))
(and (= r labelOf) (= a t2_o2) (= b keyboard))
(and (= r labelOf) (= a t3_o4) (= b bed))
(and (= r labelOf) (= a t3_o2) (= b mouse))
(and (= r labelOf) (= a t3_o3) (= b tvmonitor))
(and (= r labelOf) (= a t3_o1) (= b keyboard))
(and (= r labelOf) (= a t1_o1) (= b book))
(and (= r labelOf) (= a t1_o2) (= b cell_phone))
(and (= r labelOf) (= a t1_o3) (= b keyboard))
(and (= r labelOf) (= a t1_o4) (= b mouse))
(and (= r labelOf) (= a t1_o5) (= b tvmonitor))
(and (= r labelOf) (= a t1_o6) (= b cup))
(and (= r labelOf) (= a t1_o7) (= b bottle))

(and (= r sameLabel) (= a s3_o1) (= b s3_o1))
(and (= r sameLabel) (= a s3_o3) (= b s3_o3))
(and (= r sameLabel) (= a s3_o2) (= b s3_o2))
(and (= r sameLabel) (= a s2_o2) (= b s2_o2))
(and (= r sameLabel) (= a s2_o3) (= b s2_o3))
(and (= r sameLabel) (= a s2_o1) (= b s2_o1))
(and (= r sameLabel) (= a s2_o4) (= b s2_o4))
(and (= r sameLabel) (= a s1_o8) (= b s1_o8))
(and (= r sameLabel) (= a s1_o3) (= b s1_o3))
(and (= r sameLabel) (= a s1_o2) (= b s1_o2))
(and (= r sameLabel) (= a s1_o2) (= b s1_o1))
(and (= r sameLabel) (= a s1_o1) (= b s1_o2))
(and (= r sameLabel) (= a s1_o1) (= b s1_o1))
(and (= r sameLabel) (= a s1_o7) (= b s1_o7))
(and (= r sameLabel) (= a s1_o7) (= b s1_o6))
(and (= r sameLabel) (= a s1_o7) (= b s1_o5))
(and (= r sameLabel) (= a s1_o7) (= b s1_o4))
(and (= r sameLabel) (= a s1_o6) (= b s1_o7))
(and (= r sameLabel) (= a s1_o6) (= b s1_o6))
(and (= r sameLabel) (= a s1_o6) (= b s1_o5))
(and (= r sameLabel) (= a s1_o6) (= b s1_o4))
(and (= r sameLabel) (= a s1_o5) (= b s1_o7))
(and (= r sameLabel) (= a s1_o5) (= b s1_o6))
(and (= r sameLabel) (= a s1_o5) (= b s1_o5))
(and (= r sameLabel) (= a s1_o5) (= b s1_o4))
(and (= r sameLabel) (= a s1_o4) (= b s1_o7))
(and (= r sameLabel) (= a s1_o4) (= b s1_o6))
(and (= r sameLabel) (= a s1_o4) (= b s1_o5))
(and (= r sameLabel) (= a s1_o4) (= b s1_o4))
(and (= r sameLabel) (= a s4_o1) (= b s4_o1))
(and (= r sameLabel) (= a s4_o1) (= b s4_o2))
(and (= r sameLabel) (= a s4_o1) (= b s4_o3))
(and (= r sameLabel) (= a s4_o2) (= b s4_o1))
(and (= r sameLabel) (= a s4_o2) (= b s4_o2))
(and (= r sameLabel) (= a s4_o2) (= b s4_o3))
(and (= r sameLabel) (= a s4_o3) (= b s4_o1))
(and (= r sameLabel) (= a s4_o3) (= b s4_o2))
(and (= r sameLabel) (= a s4_o3) (= b s4_o3))
(and (= r sameLabel) (= a s4_o4) (= b s4_o4))
(and (= r sameLabel) (= a s4_o5) (= b s4_o5))
(and (= r sameLabel) (= a s4_o5) (= b s4_o6))
(and (= r sameLabel) (= a s4_o5) (= b s4_o7))
(and (= r sameLabel) (= a s4_o6) (= b s4_o5))
(and (= r sameLabel) (= a s4_o6) (= b s4_o6))
(and (= r sameLabel) (= a s4_o6) (= b s4_o7))
(and (= r sameLabel) (= a s4_o7) (= b s4_o5))
(and (= r sameLabel) (= a s4_o7) (= b s4_o6))
(and (= r sameLabel) (= a s4_o7) (= b s4_o7))
(and (= r sameLabel) (= a s4_o8) (= b s4_o8))
(and (= r sameLabel) (= a s4_o8) (= b s4_o9))
(and (= r sameLabel) (= a s4_o8) (= b s4_o10))
(and (= r sameLabel) (= a s4_o9) (= b s4_o8))
(and (= r sameLabel) (= a s4_o9) (= b s4_o9))
(and (= r sameLabel) (= a s4_o9) (= b s4_o10))
(and (= r sameLabel) (= a s4_o12) (= b s4_o12))
(and (= r sameLabel) (= a s4_o10) (= b s4_o8))
(and (= r sameLabel) (= a s4_o10) (= b s4_o9))
(and (= r sameLabel) (= a s4_o10) (= b s4_o10))
(and (= r sameLabel) (= a s4_o11) (= b s4_o11))
(and (= r sameLabel) (= a t2_o5) (= b t2_o5))
(and (= r sameLabel) (= a t2_o5) (= b t2_o6))
(and (= r sameLabel) (= a t2_o4) (= b t2_o4))
(and (= r sameLabel) (= a t2_o4) (= b t2_o3))
(and (= r sameLabel) (= a t2_o6) (= b t2_o5))
(and (= r sameLabel) (= a t2_o6) (= b t2_o6))
(and (= r sameLabel) (= a t2_o1) (= b t2_o1))
(and (= r sameLabel) (= a t2_o1) (= b t2_o2))
(and (= r sameLabel) (= a t2_o3) (= b t2_o4))
(and (= r sameLabel) (= a t2_o3) (= b t2_o3))
(and (= r sameLabel) (= a t2_o2) (= b t2_o1))
(and (= r sameLabel) (= a t2_o2) (= b t2_o2))
(and (= r sameLabel) (= a t3_o4) (= b t3_o4))
(and (= r sameLabel) (= a t3_o2) (= b t3_o2))
(and (= r sameLabel) (= a t3_o3) (= b t3_o3))
(and (= r sameLabel) (= a t3_o1) (= b t3_o1))
(and (= r sameLabel) (= a t1_o1) (= b t1_o1))
(and (= r sameLabel) (= a t1_o2) (= b t1_o2))
(and (= r sameLabel) (= a t1_o3) (= b t1_o3))
(and (= r sameLabel) (= a t1_o4) (= b t1_o4))
(and (= r sameLabel) (= a t1_o5) (= b t1_o5))
(and (= r sameLabel) (= a t1_o6) (= b t1_o6))
(and (= r sameLabel) (= a t1_o7) (= b t1_o7))

(and (= r toLeft) (= a s2_o2) (= b s2_o3))
(and (= r toLeft) (= a s2_o2) (= b s2_o1))
(and (= r toLeft) (= a s2_o3) (= b s2_o1))
(and (= r toLeft) (= a s2_o4) (= b s2_o1))
(and (= r toLeft) (= a s1_o2) (= b s1_o8))
(and (= r toLeft) (= a s1_o2) (= b s1_o3))
(and (= r toLeft) (= a s1_o2) (= b s1_o7))
(and (= r toLeft) (= a s1_o2) (= b s1_o4))
(and (= r toLeft) (= a s1_o1) (= b s1_o8))
(and (= r toLeft) (= a s1_o1) (= b s1_o3))
(and (= r toLeft) (= a s1_o1) (= b s1_o7))
(and (= r toLeft) (= a s1_o1) (= b s1_o4))
(and (= r toLeft) (= a s1_o6) (= b s1_o8))
(and (= r toLeft) (= a s1_o6) (= b s1_o3))
(and (= r toLeft) (= a s1_o6) (= b s1_o2))
(and (= r toLeft) (= a s1_o6) (= b s1_o1))
(and (= r toLeft) (= a s1_o6) (= b s1_o7))
(and (= r toLeft) (= a s1_o6) (= b s1_o4))
(and (= r toLeft) (= a s1_o5) (= b s1_o8))
(and (= r toLeft) (= a s1_o5) (= b s1_o3))
(and (= r toLeft) (= a s1_o5) (= b s1_o7))
(and (= r toLeft) (= a s1_o5) (= b s1_o4))
(and (= r toLeft) (= a s4_o1) (= b s4_o4))
(and (= r toLeft) (= a s4_o1) (= b s4_o5))
(and (= r toLeft) (= a s4_o1) (= b s4_o6))
(and (= r toLeft) (= a s4_o1) (= b s4_o7))
(and (= r toLeft) (= a s4_o1) (= b s4_o8))
(and (= r toLeft) (= a s4_o1) (= b s4_o9))
(and (= r toLeft) (= a s4_o1) (= b s4_o10))
(and (= r toLeft) (= a s4_o2) (= b s4_o4))
(and (= r toLeft) (= a s4_o2) (= b s4_o5))
(and (= r toLeft) (= a s4_o2) (= b s4_o6))
(and (= r toLeft) (= a s4_o2) (= b s4_o7))
(and (= r toLeft) (= a s4_o2) (= b s4_o8))
(and (= r toLeft) (= a s4_o2) (= b s4_o9))
(and (= r toLeft) (= a s4_o2) (= b s4_o12))
(and (= r toLeft) (= a s4_o2) (= b s4_o10))
(and (= r toLeft) (= a s4_o3) (= b s4_o4))
(and (= r toLeft) (= a s4_o3) (= b s4_o5))
(and (= r toLeft) (= a s4_o3) (= b s4_o6))
(and (= r toLeft) (= a s4_o3) (= b s4_o7))
(and (= r toLeft) (= a s4_o3) (= b s4_o8))
(and (= r toLeft) (= a s4_o3) (= b s4_o9))
(and (= r toLeft) (= a s4_o3) (= b s4_o10))
(and (= r toLeft) (= a s4_o4) (= b s4_o7))
(and (= r toLeft) (= a s4_o5) (= b s4_o7))
(and (= r toLeft) (= a s4_o6) (= b s4_o5))
(and (= r toLeft) (= a s4_o6) (= b s4_o7))
(and (= r toLeft) (= a s4_o6) (= b s4_o8))
(and (= r toLeft) (= a s4_o9) (= b s4_o5))
(and (= r toLeft) (= a s4_o9) (= b s4_o7))
(and (= r toLeft) (= a s4_o12) (= b s4_o4))
(and (= r toLeft) (= a s4_o12) (= b s4_o5))
(and (= r toLeft) (= a s4_o12) (= b s4_o6))
(and (= r toLeft) (= a s4_o12) (= b s4_o7))
(and (= r toLeft) (= a s4_o12) (= b s4_o8))
(and (= r toLeft) (= a s4_o10) (= b s4_o4))
(and (= r toLeft) (= a s4_o10) (= b s4_o5))
(and (= r toLeft) (= a s4_o10) (= b s4_o6))
(and (= r toLeft) (= a s4_o10) (= b s4_o7))
(and (= r toLeft) (= a s4_o10) (= b s4_o8))
(and (= r toLeft) (= a s4_o10) (= b s4_o9))
(and (= r toLeft) (= a s4_o11) (= b s4_o4))
(and (= r toLeft) (= a s4_o11) (= b s4_o5))
(and (= r toLeft) (= a s4_o11) (= b s4_o7))
(and (= r toLeft) (= a s4_o11) (= b s4_o8))
(and (= r toLeft) (= a t2_o5) (= b t2_o4))
(and (= r toLeft) (= a t2_o6) (= b t2_o5))
(and (= r toLeft) (= a t2_o6) (= b t2_o4))
(and (= r toLeft) (= a t2_o6) (= b t2_o1))
(and (= r toLeft) (= a t2_o1) (= b t2_o4))
(and (= r toLeft) (= a t2_o3) (= b t2_o5))
(and (= r toLeft) (= a t2_o3) (= b t2_o4))
(and (= r toLeft) (= a t2_o3) (= b t2_o1))
(and (= r toLeft) (= a t2_o2) (= b t2_o5))
(and (= r toLeft) (= a t2_o2) (= b t2_o4))
(and (= r toLeft) (= a t2_o2) (= b t2_o1))
(and (= r toLeft) (= a t3_o3) (= b t3_o4))
(and (= r toLeft) (= a t3_o3) (= b t3_o2))
(and (= r toLeft) (= a t1_o2) (= b t1_o1))
(and (= r toLeft) (= a t1_o2) (= b t1_o3))
(and (= r toLeft) (= a t1_o2) (= b t1_o4))
(and (= r toLeft) (= a t1_o2) (= b t1_o5))
(and (= r toLeft) (= a t1_o2) (= b t1_o7))
(and (= r toLeft) (= a t1_o5) (= b t1_o1))
(and (= r toLeft) (= a t1_o5) (= b t1_o4))
(and (= r toLeft) (= a t1_o6) (= b t1_o1))
(and (= r toLeft) (= a t1_o6) (= b t1_o3))
(and (= r toLeft) (= a t1_o6) (= b t1_o4))
(and (= r toLeft) (= a t1_o6) (= b t1_o5))
(and (= r toLeft) (= a t1_o6) (= b t1_o7))
(and (= r toLeft) (= a t1_o7) (= b t1_o1))
(and (= r toLeft) (= a t1_o7) (= b t1_o4))

(and (= r toRight) (= a s2_o3) (= b s2_o2))
(and (= r toRight) (= a s2_o1) (= b s2_o2))
(and (= r toRight) (= a s2_o1) (= b s2_o3))
(and (= r toRight) (= a s2_o1) (= b s2_o4))
(and (= r toRight) (= a s1_o8) (= b s1_o2))
(and (= r toRight) (= a s1_o8) (= b s1_o1))
(and (= r toRight) (= a s1_o8) (= b s1_o6))
(and (= r toRight) (= a s1_o8) (= b s1_o5))
(and (= r toRight) (= a s1_o3) (= b s1_o2))
(and (= r toRight) (= a s1_o3) (= b s1_o1))
(and (= r toRight) (= a s1_o3) (= b s1_o6))
(and (= r toRight) (= a s1_o3) (= b s1_o5))
(and (= r toRight) (= a s1_o2) (= b s1_o6))
(and (= r toRight) (= a s1_o1) (= b s1_o6))
(and (= r toRight) (= a s1_o7) (= b s1_o2))
(and (= r toRight) (= a s1_o7) (= b s1_o1))
(and (= r toRight) (= a s1_o7) (= b s1_o6))
(and (= r toRight) (= a s1_o7) (= b s1_o5))
(and (= r toRight) (= a s1_o4) (= b s1_o2))
(and (= r toRight) (= a s1_o4) (= b s1_o1))
(and (= r toRight) (= a s1_o4) (= b s1_o6))
(and (= r toRight) (= a s1_o4) (= b s1_o5))
(and (= r toRight) (= a s4_o4) (= b s4_o1))
(and (= r toRight) (= a s4_o4) (= b s4_o2))
(and (= r toRight) (= a s4_o4) (= b s4_o3))
(and (= r toRight) (= a s4_o4) (= b s4_o12))
(and (= r toRight) (= a s4_o4) (= b s4_o10))
(and (= r toRight) (= a s4_o4) (= b s4_o11))
(and (= r toRight) (= a s4_o5) (= b s4_o1))
(and (= r toRight) (= a s4_o5) (= b s4_o2))
(and (= r toRight) (= a s4_o5) (= b s4_o3))
(and (= r toRight) (= a s4_o5) (= b s4_o6))
(and (= r toRight) (= a s4_o5) (= b s4_o9))
(and (= r toRight) (= a s4_o5) (= b s4_o12))
(and (= r toRight) (= a s4_o5) (= b s4_o10))
(and (= r toRight) (= a s4_o5) (= b s4_o11))
(and (= r toRight) (= a s4_o6) (= b s4_o1))
(and (= r toRight) (= a s4_o6) (= b s4_o2))
(and (= r toRight) (= a s4_o6) (= b s4_o3))
(and (= r toRight) (= a s4_o6) (= b s4_o12))
(and (= r toRight) (= a s4_o6) (= b s4_o10))
(and (= r toRight) (= a s4_o7) (= b s4_o1))
(and (= r toRight) (= a s4_o7) (= b s4_o2))
(and (= r toRight) (= a s4_o7) (= b s4_o3))
(and (= r toRight) (= a s4_o7) (= b s4_o4))
(and (= r toRight) (= a s4_o7) (= b s4_o5))
(and (= r toRight) (= a s4_o7) (= b s4_o6))
(and (= r toRight) (= a s4_o7) (= b s4_o9))
(and (= r toRight) (= a s4_o7) (= b s4_o12))
(and (= r toRight) (= a s4_o7) (= b s4_o10))
(and (= r toRight) (= a s4_o7) (= b s4_o11))
(and (= r toRight) (= a s4_o8) (= b s4_o1))
(and (= r toRight) (= a s4_o8) (= b s4_o2))
(and (= r toRight) (= a s4_o8) (= b s4_o3))
(and (= r toRight) (= a s4_o8) (= b s4_o6))
(and (= r toRight) (= a s4_o8) (= b s4_o12))
(and (= r toRight) (= a s4_o8) (= b s4_o10))
(and (= r toRight) (= a s4_o8) (= b s4_o11))
(and (= r toRight) (= a s4_o9) (= b s4_o1))
(and (= r toRight) (= a s4_o9) (= b s4_o2))
(and (= r toRight) (= a s4_o9) (= b s4_o3))
(and (= r toRight) (= a s4_o9) (= b s4_o10))
(and (= r toRight) (= a s4_o12) (= b s4_o2))
(and (= r toRight) (= a s4_o10) (= b s4_o1))
(and (= r toRight) (= a s4_o10) (= b s4_o2))
(and (= r toRight) (= a s4_o10) (= b s4_o3))
(and (= r toRight) (= a t2_o5) (= b t2_o6))
(and (= r toRight) (= a t2_o5) (= b t2_o3))
(and (= r toRight) (= a t2_o5) (= b t2_o2))
(and (= r toRight) (= a t2_o4) (= b t2_o5))
(and (= r toRight) (= a t2_o4) (= b t2_o6))
(and (= r toRight) (= a t2_o4) (= b t2_o1))
(and (= r toRight) (= a t2_o4) (= b t2_o3))
(and (= r toRight) (= a t2_o4) (= b t2_o2))
(and (= r toRight) (= a t2_o1) (= b t2_o6))
(and (= r toRight) (= a t2_o1) (= b t2_o3))
(and (= r toRight) (= a t2_o1) (= b t2_o2))
(and (= r toRight) (= a t3_o4) (= b t3_o3))
(and (= r toRight) (= a t3_o2) (= b t3_o3))
(and (= r toRight) (= a t1_o1) (= b t1_o2))
(and (= r toRight) (= a t1_o1) (= b t1_o5))
(and (= r toRight) (= a t1_o1) (= b t1_o6))
(and (= r toRight) (= a t1_o1) (= b t1_o7))
(and (= r toRight) (= a t1_o3) (= b t1_o2))
(and (= r toRight) (= a t1_o3) (= b t1_o6))
(and (= r toRight) (= a t1_o4) (= b t1_o2))
(and (= r toRight) (= a t1_o4) (= b t1_o5))
(and (= r toRight) (= a t1_o4) (= b t1_o6))
(and (= r toRight) (= a t1_o4) (= b t1_o7))
(and (= r toRight) (= a t1_o5) (= b t1_o2))
(and (= r toRight) (= a t1_o5) (= b t1_o6))
(and (= r toRight) (= a t1_o7) (= b t1_o2))
(and (= r toRight) (= a t1_o7) (= b t1_o6))

(and (= r above) (= a s2_o2) (= b s2_o3))
(and (= r above) (= a s2_o1) (= b s2_o3))
(and (= r above) (= a s1_o3) (= b s1_o7))
(and (= r above) (= a s1_o3) (= b s1_o6))
(and (= r above) (= a s1_o3) (= b s1_o4))
(and (= r above) (= a s1_o2) (= b s1_o8))
(and (= r above) (= a s1_o2) (= b s1_o7))
(and (= r above) (= a s1_o2) (= b s1_o6))
(and (= r above) (= a s1_o2) (= b s1_o5))
(and (= r above) (= a s1_o2) (= b s1_o4))
(and (= r above) (= a s1_o1) (= b s1_o8))
(and (= r above) (= a s1_o1) (= b s1_o7))
(and (= r above) (= a s1_o1) (= b s1_o6))
(and (= r above) (= a s1_o1) (= b s1_o5))
(and (= r above) (= a s1_o1) (= b s1_o4))
(and (= r above) (= a s4_o1) (= b s4_o4))
(and (= r above) (= a s4_o1) (= b s4_o5))
(and (= r above) (= a s4_o1) (= b s4_o6))
(and (= r above) (= a s4_o1) (= b s4_o7))
(and (= r above) (= a s4_o1) (= b s4_o8))
(and (= r above) (= a s4_o1) (= b s4_o12))
(and (= r above) (= a s4_o1) (= b s4_o11))
(and (= r above) (= a s4_o2) (= b s4_o4))
(and (= r above) (= a s4_o2) (= b s4_o5))
(and (= r above) (= a s4_o2) (= b s4_o6))
(and (= r above) (= a s4_o2) (= b s4_o7))
(and (= r above) (= a s4_o2) (= b s4_o12))
(and (= r above) (= a s4_o2) (= b s4_o11))
(and (= r above) (= a s4_o3) (= b s4_o4))
(and (= r above) (= a s4_o3) (= b s4_o5))
(and (= r above) (= a s4_o3) (= b s4_o6))
(and (= r above) (= a s4_o3) (= b s4_o7))
(and (= r above) (= a s4_o3) (= b s4_o8))
(and (= r above) (= a s4_o3) (= b s4_o12))
(and (= r above) (= a s4_o3) (= b s4_o10))
(and (= r above) (= a s4_o3) (= b s4_o11))
(and (= r above) (= a s4_o4) (= b s4_o5))
(and (= r above) (= a s4_o4) (= b s4_o7))
(and (= r above) (= a s4_o4) (= b s4_o12))
(and (= r above) (= a s4_o5) (= b s4_o7))
(and (= r above) (= a s4_o6) (= b s4_o5))
(and (= r above) (= a s4_o6) (= b s4_o7))
(and (= r above) (= a s4_o6) (= b s4_o12))
(and (= r above) (= a s4_o6) (= b s4_o11))
(and (= r above) (= a s4_o8) (= b s4_o5))
(and (= r above) (= a s4_o8) (= b s4_o7))
(and (= r above) (= a s4_o8) (= b s4_o12))
(and (= r above) (= a s4_o8) (= b s4_o11))
(and (= r above) (= a s4_o9) (= b s4_o4))
(and (= r above) (= a s4_o9) (= b s4_o5))
(and (= r above) (= a s4_o9) (= b s4_o6))
(and (= r above) (= a s4_o9) (= b s4_o7))
(and (= r above) (= a s4_o9) (= b s4_o12))
(and (= r above) (= a s4_o9) (= b s4_o11))
(and (= r above) (= a s4_o10) (= b s4_o4))
(and (= r above) (= a s4_o10) (= b s4_o5))
(and (= r above) (= a s4_o10) (= b s4_o6))
(and (= r above) (= a s4_o10) (= b s4_o7))
(and (= r above) (= a s4_o10) (= b s4_o12))
(and (= r above) (= a s4_o10) (= b s4_o11))
(and (= r above) (= a t2_o5) (= b t2_o4))
(and (= r above) (= a t2_o5) (= b t2_o1))
(and (= r above) (= a t2_o5) (= b t2_o3))
(and (= r above) (= a t2_o5) (= b t2_o2))
(and (= r above) (= a t2_o6) (= b t2_o4))
(and (= r above) (= a t2_o6) (= b t2_o1))
(and (= r above) (= a t2_o6) (= b t2_o3))
(and (= r above) (= a t2_o6) (= b t2_o2))
(and (= r above) (= a t3_o2) (= b t3_o4))
(and (= r above) (= a t3_o3) (= b t3_o4))
(and (= r above) (= a t3_o3) (= b t3_o1))
(and (= r above) (= a t1_o1) (= b t1_o2))
(and (= r above) (= a t1_o1) (= b t1_o3))
(and (= r above) (= a t1_o5) (= b t1_o2))
(and (= r above) (= a t1_o5) (= b t1_o3))
(and (= r above) (= a t1_o5) (= b t1_o4))
(and (= r above) (= a t1_o6) (= b t1_o2))
(and (= r above) (= a t1_o7) (= b t1_o2))
(and (= r above) (= a t1_o7) (= b t1_o3))

(and (= r below) (= a s2_o3) (= b s2_o2))
(and (= r below) (= a s2_o3) (= b s2_o1))
(and (= r below) (= a s1_o8) (= b s1_o2))
(and (= r below) (= a s1_o8) (= b s1_o1))
(and (= r below) (= a s1_o7) (= b s1_o3))
(and (= r below) (= a s1_o7) (= b s1_o2))
(and (= r below) (= a s1_o7) (= b s1_o1))
(and (= r below) (= a s1_o6) (= b s1_o3))
(and (= r below) (= a s1_o6) (= b s1_o2))
(and (= r below) (= a s1_o6) (= b s1_o1))
(and (= r below) (= a s1_o5) (= b s1_o2))
(and (= r below) (= a s1_o5) (= b s1_o1))
(and (= r below) (= a s1_o4) (= b s1_o3))
(and (= r below) (= a s1_o4) (= b s1_o2))
(and (= r below) (= a s1_o4) (= b s1_o1))
(and (= r below) (= a s4_o4) (= b s4_o1))
(and (= r below) (= a s4_o4) (= b s4_o2))
(and (= r below) (= a s4_o4) (= b s4_o3))
(and (= r below) (= a s4_o4) (= b s4_o9))
(and (= r below) (= a s4_o4) (= b s4_o10))
(and (= r below) (= a s4_o5) (= b s4_o1))
(and (= r below) (= a s4_o5) (= b s4_o2))
(and (= r below) (= a s4_o5) (= b s4_o3))
(and (= r below) (= a s4_o5) (= b s4_o4))
(and (= r below) (= a s4_o5) (= b s4_o6))
(and (= r below) (= a s4_o5) (= b s4_o8))
(and (= r below) (= a s4_o5) (= b s4_o9))
(and (= r below) (= a s4_o5) (= b s4_o10))
(and (= r below) (= a s4_o6) (= b s4_o1))
(and (= r below) (= a s4_o6) (= b s4_o2))
(and (= r below) (= a s4_o6) (= b s4_o3))
(and (= r below) (= a s4_o6) (= b s4_o9))
(and (= r below) (= a s4_o6) (= b s4_o10))
(and (= r below) (= a s4_o7) (= b s4_o1))
(and (= r below) (= a s4_o7) (= b s4_o2))
(and (= r below) (= a s4_o7) (= b s4_o3))
(and (= r below) (= a s4_o7) (= b s4_o4))
(and (= r below) (= a s4_o7) (= b s4_o5))
(and (= r below) (= a s4_o7) (= b s4_o6))
(and (= r below) (= a s4_o7) (= b s4_o8))
(and (= r below) (= a s4_o7) (= b s4_o9))
(and (= r below) (= a s4_o7) (= b s4_o10))
(and (= r below) (= a s4_o8) (= b s4_o1))
(and (= r below) (= a s4_o8) (= b s4_o3))
(and (= r below) (= a s4_o12) (= b s4_o1))
(and (= r below) (= a s4_o12) (= b s4_o2))
(and (= r below) (= a s4_o12) (= b s4_o3))
(and (= r below) (= a s4_o12) (= b s4_o4))
(and (= r below) (= a s4_o12) (= b s4_o6))
(and (= r below) (= a s4_o12) (= b s4_o8))
(and (= r below) (= a s4_o12) (= b s4_o9))
(and (= r below) (= a s4_o12) (= b s4_o10))
(and (= r below) (= a s4_o10) (= b s4_o3))
(and (= r below) (= a s4_o11) (= b s4_o1))
(and (= r below) (= a s4_o11) (= b s4_o2))
(and (= r below) (= a s4_o11) (= b s4_o3))
(and (= r below) (= a s4_o11) (= b s4_o6))
(and (= r below) (= a s4_o11) (= b s4_o8))
(and (= r below) (= a s4_o11) (= b s4_o9))
(and (= r below) (= a s4_o11) (= b s4_o10))
(and (= r below) (= a t2_o4) (= b t2_o5))
(and (= r below) (= a t2_o4) (= b t2_o6))
(and (= r below) (= a t2_o1) (= b t2_o5))
(and (= r below) (= a t2_o1) (= b t2_o6))
(and (= r below) (= a t2_o3) (= b t2_o5))
(and (= r below) (= a t2_o3) (= b t2_o6))
(and (= r below) (= a t2_o2) (= b t2_o5))
(and (= r below) (= a t2_o2) (= b t2_o6))
(and (= r below) (= a t3_o4) (= b t3_o2))
(and (= r below) (= a t3_o4) (= b t3_o3))
(and (= r below) (= a t3_o1) (= b t3_o3))
(and (= r below) (= a t1_o2) (= b t1_o1))
(and (= r below) (= a t1_o2) (= b t1_o5))
(and (= r below) (= a t1_o2) (= b t1_o6))
(and (= r below) (= a t1_o2) (= b t1_o7))
(and (= r below) (= a t1_o3) (= b t1_o1))
(and (= r below) (= a t1_o3) (= b t1_o5))
(and (= r below) (= a t1_o3) (= b t1_o7))
(and (= r below) (= a t1_o4) (= b t1_o5))

(and (= r within) (= a s4_o12) (= b s4_o11))

))
;Datatype for indicating which quantifier to use in formula
(declare-datatypes () ((Quantifier all one)))
;Datatype of indirections to indicate what the arguments of relations in the abstract baseformula are-- i.e, a datatype of bindings 
;Constants/extraneous objects have bindings as well
(declare-datatypes () ((Binding
 bind_x1 bind_x2
;bindings for extraneous objects
 bind_vase bind_keyboard bind_tvmonitor bind_chair bind_mouse bind_diningtable bind_remote bind_cup bind_sofa bind_backpack bind_bed bind_nullobj bind_person bind_bottle bind_cell_phone bind_book
)))
;Defines how bindings correspond to valuations
;Default lookup is nullobj, but it is used since the function is defined for all bindings
(define-fun bindlook ((x1 Obj)(x2 Obj)(bind Binding)) Obj
(ite (= bind bind_x2) x2
(ite (= bind bind_x1) x1
;Bindings for extraneous objects
(ite (= bind bind_book) book
(ite (= bind bind_cell_phone) cell_phone
(ite (= bind bind_bottle) bottle
(ite (= bind bind_person) person
(ite (= bind bind_nullobj) nullobj
(ite (= bind bind_bed) bed
(ite (= bind bind_backpack) backpack
(ite (= bind bind_sofa) sofa
(ite (= bind bind_cup) cup
(ite (= bind bind_remote) remote
(ite (= bind bind_diningtable) diningtable
(ite (= bind bind_mouse) mouse
(ite (= bind bind_chair) chair
(ite (= bind bind_tvmonitor) tvmonitor
(ite (= bind bind_keyboard) keyboard
(ite (= bind bind_vase) vase
 nullobj))))))))))))))))))
)
;Defines symbols used to indicate which boolean operators will be used, including negations, and their meanings as well
(declare-datatypes () ((Ops opand opor opimpl)))
(declare-datatypes () ((IfNeg yes no)))
(define-fun opeval ((op Ops) (arg1 Bool) (arg2 Bool)) Bool
 (ite (= op opand) (and arg1 arg2)
 (ite (= op opor) (or arg1 arg2)
  (=> arg1 arg2)
)))
(define-fun negeval ((val IfNeg)(arg Bool)) Bool
 (ite (= val yes)
  (not arg)
  arg
))
(declare-const q1 Quantifier)
(declare-const q2 Quantifier)


(declare-const n1 IfNeg)

(declare-const r1 Rels)

(declare-const arg1_1 Binding)
(declare-const arg1_2 Binding)

(assert (=> (= r1 labelOf) (= n1 no)))

;Defines the innermost (quantifier-free) formula
(define-fun baseformula ((x1 Obj)(x2 Obj)) Bool
(negeval n1 (re r1 (bindlook x1 x2 arg1_1) (bindlook x1 x2 arg1_2)))
)
;Formula at quantifier level 2
(define-fun formula_level_2 ((x1 Obj) (img Img)) Bool
(ite (= q2 all)
 (forall ((x2 Obj)) (=> (inImg x2 img) (baseformula x1 x2)))
 (exists ((x2 Obj)) (and (inImg x2 img) (baseformula x1 x2)))
));Formula at quantifier level 1
(define-fun formula_level_1 ((img Img)) Bool
(ite (= q1 all)
 (forall ((x1 Obj)) (=> (inImg x1 img) (formula_level_2 x1 img)))
 (exists ((x1 Obj)) (and (inImg x1 img) (formula_level_2 x1 img)))
))

(assert (formula_level_1 t2))
(assert (formula_level_1 t3))
(assert (formula_level_1 t1))

(assert (formula_level_1 s4))
(assert (not (formula_level_1 s1)))
(assert (not (formula_level_1 s2)))
(assert (not (formula_level_1 s3)))

(assert (not (and
(= q1 one)
(= q2 one)
(= r1 labelOf)
(= n1 no)
(= arg1_1 bind_x2)
(= arg1_2 bind_mouse)
)))
(assert (not (and
(= q1 one)
(= q2 one)
(= r1 labelOf)
(= n1 no)
(= arg1_1 bind_x1)
(= arg1_2 bind_mouse)
)))
(assert (not (and
(= q1 one)
(= q2 all)
(= r1 labelOf)
(= n1 no)
(= arg1_1 bind_x1)
(= arg1_2 bind_mouse)
)))(check-sat)
(get-model)